NAME : morphed21-5-13
COMMENT : Generated using the function morphInstances from the R-package netgen (Bossek,2015) - Number of clusters: 5 Alpha: 0.5
TYPE : TSP
DIMENSION : 21
EDGE_WEIGHT_TYPE : EUC_2D
NODE_COORD_SECTION
1 74.6937386484 50.1283125335
2 15.697535522 77.8966169166
3 37.9731411361 59.3669790945
4 28.5312216303 20.7047501837
5 93.4982694608 58.9374960629
6 1.287127699 47.2057854613
7 53.1802674304 41.0499937666
8 76.249195484 23.7697511535
9 86.5059202866 55.7361475237
10 4.9669559126 61.665486939
11 69.2388155371 25.7694262259
12 48.1670249697 94.5082358446
13 83.8004485905 67.9834074659
14 49.6974233362 58.7466064324
15 61.6692432586 8.9658659072
16 39.5347719591 47.1001458552
17 46.4351205898 9.8783946602
18 51.3239742573 77.6377060345
19 81.8849069147 9.3611453595
20 51.797544771 66.2565188234
21 26.0966853658 31.2414820282
EOF
